
  12   12
  10   10   10   10   10   10   10   10   10   10   10   10

   0   0   0   0   0   0   0   0   0   0   0   0   0   5 2 3 4 6 11 
   2   0   0   1   0   0   3   0   0   0   0   0   1   3 10 9 5 
  10   1   0   0   0   0   0   1   0   0   0   0   0   3 9 8 5 
   1   6   1   8   0   1   4   7   0   0   1   1   9   3 9 8 7 
   2   5   7   4   0   0   0   5   1   0   0   0   0   1 7 
   6   0   7   7   0   0   0   0   8   0   0   9   0   1 8 
   9   0   0   0   0   8   0   3   0   0   0   0   0   1 12
   4   0   0   5   0   0  10   9   0   0   9   0   0   1 12
   3   0   0   0   0   0   0   0   0   0   0   0   0   1 12
   5   0   0   0   0   6   3   5   6   0   0   0   0   1 12
   3   8   0   0   5   0   0   0   0   0   0   0   0   1 12
   0   0   0   0   0   0   0   0   0   0   0   0   0   0 
